92	0

0	3	2	3	4
10	3	10	13	18
4	3	6	7	15
2	2	5	9
2	3	6	7	15
1	6	8	10	11	12	13	14
5	5	8	10	12	13	14
7	6	16	17	19	20	21	22
8	3	10	13	18
6	6	16	17	19	20	21	22
8	7	16	17	18	19	20	21	22
4	7	16	17	18	19	20	21	22
6	6	16	17	19	20	21	22
5	6	16	17	19	20	21	22
9	7	16	17	18	19	20	21	22
2	3	23	24	26
9	8	27	29	30	31	32	33	34	40
8	4	25	27	28	34
2	3	23	24	26
7	3	25	27	34
6	4	25	27	28	34
1	3	23	24	26
9	4	30	33	36	40
2	5	25	27	28	34	35
3	6	29	30	31	32	33	40
9	4	30	33	36	40
9	4	37	38	39	41
4	6	29	30	31	32	33	40
6	5	36	37	38	39	41
7	4	37	38	39	41
6	5	36	37	38	39	41
5	5	36	37	38	39	41
6	4	37	38	39	41
9	4	37	38	39	41
9	6	36	37	38	39	40	41
3	4	42	43	44	45
6	5	46	47	48	49	50
7	5	46	47	48	49	50
1	4	42	43	44	45
6	4	42	43	44	45
5	1	43
10	7	53	54	55	56	57	59	60
1	5	46	47	48	49	50
6	5	46	47	48	49	50
6	5	46	47	48	49	50
8	4	53	54	55	56
3	3	51	52	57
9	7	53	56	58	61	62	65	67
1	3	51	52	57
9	7	53	56	58	61	62	65	67
3	6	53	54	55	56	59	60
5	4	53	54	55	56
8	5	66	68	69	70	72
8	7	63	64	66	68	69	70	72
4	5	58	61	62	65	67
6	7	63	64	66	68	69	70	72
10	5	61	63	64	65	67
5	5	66	68	69	70	72
7	4	61	62	65	67
8	5	61	63	64	65	67
6	1	70
3	7	63	64	66	68	69	70	72
9	4	74	76	77	78
6	6	71	74	75	76	77	78
3	5	66	68	69	70	72
4	7	71	73	74	75	76	77	78
5	1	70
8	4	74	76	77	78
9	2	77	78
1	7	71	73	74	75	76	77	78
10	4	82	83	85	86
9	2	77	78
6	1	79
7	4	82	83	85	86
8	6	80	81	82	83	85	86
7	4	82	83	85	86
5	5	81	82	83	85	86
1	1	79
3	6	80	81	82	83	85	86
6	2	87	90
10	2	88	89
6	3	88	89	90
1	3	84	87	90
6	2	88	89
10	1	91
10	1	91
5	2	88	89
8	1	91
2	1	91
9	1	91
3	1	92
0	0
